Solver command line: ['/usr/local/bin/gurobi.sh']

Set parameter WLSAccessID
Set parameter WLSSecret
Set parameter LicenseID to value 2606900
Academic license 2606900 - for non-commercial use only - registered to so___@htwk-leipzig.de
Read LP format model from file /var/folders/jf/5sh4zzv94dxbcz8g7tg2jq5h0000gn/T/tmp6mnforz2.pyomo.lp
Reading time = 2.13 seconds
objective: 967944 rows, 875999 columns, 2185566 nonzeros
Set parameter MIPGap to value 0.02
Gurobi Optimizer version 12.0.1 build v12.0.1rc0 (mac64[rosetta2] - Darwin 24.4.0 24E263)

CPU model: Apple M3
Thread count: 8 physical cores, 8 logical processors, using up to 8 threads

Non-default parameters:
MIPGap  0.02

Academic license 2606900 - for non-commercial use only - registered to so___@htwk-leipzig.de
Optimize a model with 967944 rows, 875999 columns and 2185566 nonzeros
Model fingerprint: 0xf293bdee
Model has 8759 quadratic constraints
Variable types: 753360 continuous, 122639 integer (105120 binary)
Coefficient statistics:
  Matrix range     [8e-03, 2e+02]
  QMatrix range    [1e+00, 1e+00]
  Objective range  [1e-02, 3e+02]
  Bounds range     [1e+00, 3e+00]
  RHS range        [8e-05, 1e+04]
Presolve removed 775347 rows and 657117 columns
Presolve time: 0.45s
Presolved: 192597 rows, 218882 columns, 609966 nonzeros
Variable types: 144670 continuous, 74212 integer (65452 binary)
Performing another presolve...
Presolve removed 70171 rows and 70170 columns
Presolve time: 4.82s
Deterministic concurrent LP optimizer: primal and dual simplex
Showing primal log only...


Root simplex log...

Iteration    Objective       Primal Inf.    Dual Inf.      Time
       0    5.4063229e+07   9.046738e+06   6.689047e+13      6s
Concurrent spin time: 0.12s

Solved with dual simplex

Root simplex log...

Iteration    Objective       Primal Inf.    Dual Inf.      Time
   69342    3.9106871e+07   0.000000e+00   0.000000e+00      9s

Root relaxation: objective 3.910687e+07, 69342 iterations, 2.49 seconds (3.75 work units)
Total elapsed time = 8.54s (DegenMoves)

    Nodes    |    Current Node    |     Objective Bounds      |     Work
 Expl Unexpl |  Obj  Depth IntInf | Incumbent    BestBd   Gap | It/Node Time

     0     0 3.9107e+07    0  350          - 3.9107e+07      -     -   10s
H    0     0                    3.920806e+07 3.9107e+07  0.26%     -   10s

Explored 1 nodes (76065 simplex iterations) in 10.68 seconds (18.70 work units)
Thread count was 8 (of 8 available processors)

Solution count 1: 3.92081e+07 

Optimal solution found (tolerance 2.00e-02)
Best objective 3.920805956677e+07, best bound 3.910687120687e+07, gap 0.2581%

